c FILE: i080-333

c SOURCE: From steinlib

c DESCRIPTION: Steinlib instance with 80 nodes and 160 edges.

p edge 80 160
e 1 11
e 1 33
e 1 39
e 1 46
e 1 51
e 1 58
e 1 60
e 1 62
e 1 67
e 1 70
e 1 77
e 1 78
e 2 49
e 2 52
e 3 9
e 3 11
e 3 60
e 4 14
e 4 15
e 4 47
e 4 52
e 4 73
e 5 17
e 5 24
e 5 26
e 5 28
e 5 29
e 5 42
e 6 31
e 7 28
e 7 38
e 7 60
e 7 64
e 8 62
e 8 66
e 9 34
e 9 35
e 10 34
e 10 42
e 10 59
e 11 24
e 11 27
e 11 48
e 11 59
e 11 64
e 11 67
e 11 79
e 12 42
e 12 77
e 13 28
e 13 33
e 13 34
e 13 36
e 13 41
e 13 49
e 13 78
e 14 32
e 14 47
e 14 61
e 14 64
e 14 68
e 14 69
e 15 41
e 15 74
e 16 29
e 17 23
e 17 43
e 17 52
e 17 79
e 18 25
e 18 44
e 19 47
e 19 72
e 20 28
e 20 50
e 20 71
e 21 35
e 21 64
e 22 27
e 22 31
e 22 41
e 22 55
e 22 70
e 23 30
e 23 38
e 23 40
e 23 44
e 23 48
e 23 57
e 24 59
e 25 44
e 25 45
e 25 54
e 25 57
e 25 65
e 25 68
e 25 77
e 26 60
e 27 36
e 27 45
e 27 58
e 27 61
e 27 66
e 28 34
e 28 36
e 28 39
e 30 62
e 30 73
e 31 42
e 31 46
e 31 64
e 32 72
e 34 72
e 35 44
e 35 51
e 35 62
e 36 50
e 37 41
e 37 55
e 38 47
e 38 55
e 39 55
e 39 56
e 39 72
e 40 62
e 41 52
e 41 61
e 41 79
e 42 53
e 42 58
e 42 76
e 43 46
e 44 49
e 45 63
e 45 68
e 46 60
e 49 64
e 50 62
e 50 68
e 51 79
e 52 53
e 52 57
e 52 73
e 52 77
e 54 66
e 56 68
e 56 79
e 58 68
e 60 80
e 61 68
e 62 71
e 63 79
e 64 73
e 64 75
e 65 68
e 66 69
e 66 71
e 68 79
e 69 77
e 69 78
